letting n =  10
letting blocks =  [[1, 2], [2, 10], [3, 1], [3, 6], [3, 8], [3, 9], [4, 1], [4, 9], [4, 10], [5, 1], [5, 9], [5, 10], [6, 2], [6, 8], [6, 9], [7, 2], [7, 4], [7, 7], [8, 2], [8, 3], [8, 5], [9, 2]]
